c Modular CNF with 3 modules
c Generated CNF instance
p cnf 30 480
3 1 8 0
3 1 -8 0
3 -1 8 0
-3 1 8 0
2 9 8 0
2 9 -8 0
2 -9 8 0
-2 9 8 0
3 9 4 0
3 9 -4 0
3 -9 4 0
-3 9 4 0
4 5 2 0
4 5 -2 0
4 -5 2 0
-4 5 2 0
1 4 9 0
1 4 -9 0
1 -4 9 0
-1 4 9 0
10 2 8 0
10 2 -8 0
10 -2 8 0
-10 2 8 0
3 9 2 0
3 9 -2 0
3 -9 2 0
-3 9 2 0
10 6 8 0
10 6 -8 0
10 -6 8 0
-10 6 8 0
1 9 3 0
1 9 -3 0
1 -9 3 0
-1 9 3 0
10 6 3 0
10 6 -3 0
10 -6 3 0
-10 6 3 0
3 8 4 0
3 8 -4 0
3 -8 4 0
-3 8 4 0
7 1 3 0
7 1 -3 0
7 -1 3 0
-7 1 3 0
8 10 5 0
8 10 -5 0
8 -10 5 0
-8 10 5 0
5 10 4 0
5 10 -4 0
5 -10 4 0
-5 10 4 0
7 6 9 0
7 6 -9 0
7 -6 9 0
-7 6 9 0
6 1 8 0
6 1 -8 0
6 -1 8 0
-6 1 8 0
9 5 6 0
9 5 -6 0
9 -5 6 0
-9 5 6 0
4 3 9 0
4 3 -9 0
4 -3 9 0
-4 3 9 0
9 6 10 0
9 6 -10 0
9 -6 10 0
-9 6 10 0
2 1 4 0
2 1 -4 0
2 -1 4 0
-2 1 4 0
8 7 5 0
8 7 -5 0
8 -7 5 0
-8 7 5 0
4 10 5 0
4 10 -5 0
4 -10 5 0
-4 10 5 0
2 9 6 0
2 9 -6 0
2 -9 6 0
-2 9 6 0
5 3 7 0
5 3 -7 0
5 -3 7 0
-5 3 7 0
9 1 7 0
9 1 -7 0
9 -1 7 0
-9 1 7 0
5 6 8 0
5 6 -8 0
5 -6 8 0
-5 6 8 0
3 10 9 0
3 10 -9 0
3 -10 9 0
-3 10 9 0
7 6 10 0
7 6 -10 0
7 -6 10 0
-7 6 10 0
4 10 5 0
4 10 -5 0
4 -10 5 0
-4 10 5 0
6 5 2 0
6 5 -2 0
6 -5 2 0
-6 5 2 0
3 9 1 0
3 9 -1 0
3 -9 1 0
-3 9 1 0
8 1 9 0
8 1 -9 0
8 -1 9 0
-8 1 9 0
8 2 10 0
8 2 -10 0
8 -2 10 0
-8 2 10 0
9 10 1 0
9 10 -1 0
9 -10 1 0
-9 10 1 0
9 8 10 0
9 8 -10 0
9 -8 10 0
-9 8 10 0
5 1 6 0
5 1 -6 0
5 -1 6 0
-5 1 6 0
10 1 8 0
10 1 -8 0
10 -1 8 0
-10 1 8 0
4 9 1 0
4 9 -1 0
4 -9 1 0
-4 9 1 0
6 7 8 0
6 7 -8 0
6 -7 8 0
-6 7 8 0
1 4 9 0
1 4 -9 0
1 -4 9 0
-1 4 9 0
20 11 13 0
20 11 -13 0
20 -11 13 0
-20 11 13 0
12 20 14 0
12 20 -14 0
12 -20 14 0
-12 20 14 0
14 11 12 0
14 11 -12 0
14 -11 12 0
-14 11 12 0
17 20 12 0
17 20 -12 0
17 -20 12 0
-17 20 12 0
12 20 13 0
12 20 -13 0
12 -20 13 0
-12 20 13 0
18 19 14 0
18 19 -14 0
18 -19 14 0
-18 19 14 0
11 19 16 0
11 19 -16 0
11 -19 16 0
-11 19 16 0
16 12 11 0
16 12 -11 0
16 -12 11 0
-16 12 11 0
12 11 15 0
12 11 -15 0
12 -11 15 0
-12 11 15 0
14 19 15 0
14 19 -15 0
14 -19 15 0
-14 19 15 0
11 20 12 0
11 20 -12 0
11 -20 12 0
-11 20 12 0
13 15 18 0
13 15 -18 0
13 -15 18 0
-13 15 18 0
12 11 14 0
12 11 -14 0
12 -11 14 0
-12 11 14 0
17 18 15 0
17 18 -15 0
17 -18 15 0
-17 18 15 0
15 16 20 0
15 16 -20 0
15 -16 20 0
-15 16 20 0
13 19 11 0
13 19 -11 0
13 -19 11 0
-13 19 11 0
17 11 18 0
17 11 -18 0
17 -11 18 0
-17 11 18 0
19 15 14 0
19 15 -14 0
19 -15 14 0
-19 15 14 0
11 17 19 0
11 17 -19 0
11 -17 19 0
-11 17 19 0
14 16 12 0
14 16 -12 0
14 -16 12 0
-14 16 12 0
14 19 16 0
14 19 -16 0
14 -19 16 0
-14 19 16 0
20 15 11 0
20 15 -11 0
20 -15 11 0
-20 15 11 0
15 17 19 0
15 17 -19 0
15 -17 19 0
-15 17 19 0
13 15 12 0
13 15 -12 0
13 -15 12 0
-13 15 12 0
18 17 13 0
18 17 -13 0
18 -17 13 0
-18 17 13 0
12 13 15 0
12 13 -15 0
12 -13 15 0
-12 13 15 0
19 16 18 0
19 16 -18 0
19 -16 18 0
-19 16 18 0
15 11 17 0
15 11 -17 0
15 -11 17 0
-15 11 17 0
18 14 11 0
18 14 -11 0
18 -14 11 0
-18 14 11 0
14 15 16 0
14 15 -16 0
14 -15 16 0
-14 15 16 0
19 18 17 0
19 18 -17 0
19 -18 17 0
-19 18 17 0
13 17 19 0
13 17 -19 0
13 -17 19 0
-13 17 19 0
14 17 16 0
14 17 -16 0
14 -17 16 0
-14 17 16 0
17 11 15 0
17 11 -15 0
17 -11 15 0
-17 11 15 0
19 15 18 0
19 15 -18 0
19 -15 18 0
-19 15 18 0
12 16 13 0
12 16 -13 0
12 -16 13 0
-12 16 13 0
14 19 16 0
14 19 -16 0
14 -19 16 0
-14 19 16 0
17 13 15 0
17 13 -15 0
17 -13 15 0
-17 13 15 0
16 12 20 0
16 12 -20 0
16 -12 20 0
-16 12 20 0
11 16 20 0
11 16 -20 0
11 -16 20 0
-11 16 20 0
24 28 26 0
24 28 -26 0
24 -28 26 0
-24 28 26 0
23 27 26 0
23 27 -26 0
23 -27 26 0
-23 27 26 0
28 27 23 0
28 27 -23 0
28 -27 23 0
-28 27 23 0
30 26 22 0
30 26 -22 0
30 -26 22 0
-30 26 22 0
28 25 23 0
28 25 -23 0
28 -25 23 0
-28 25 23 0
28 24 22 0
28 24 -22 0
28 -24 22 0
-28 24 22 0
21 28 30 0
21 28 -30 0
21 -28 30 0
-21 28 30 0
24 25 29 0
24 25 -29 0
24 -25 29 0
-24 25 29 0
25 22 24 0
25 22 -24 0
25 -22 24 0
-25 22 24 0
26 28 21 0
26 28 -21 0
26 -28 21 0
-26 28 21 0
30 25 27 0
30 25 -27 0
30 -25 27 0
-30 25 27 0
22 28 26 0
22 28 -26 0
22 -28 26 0
-22 28 26 0
25 21 26 0
25 21 -26 0
25 -21 26 0
-25 21 26 0
22 28 24 0
22 28 -24 0
22 -28 24 0
-22 28 24 0
28 21 23 0
28 21 -23 0
28 -21 23 0
-28 21 23 0
24 27 26 0
24 27 -26 0
24 -27 26 0
-24 27 26 0
23 28 25 0
23 28 -25 0
23 -28 25 0
-23 28 25 0
21 23 26 0
21 23 -26 0
21 -23 26 0
-21 23 26 0
29 30 21 0
29 30 -21 0
29 -30 21 0
-29 30 21 0
28 23 25 0
28 23 -25 0
28 -23 25 0
-28 23 25 0
22 27 21 0
22 27 -21 0
22 -27 21 0
-22 27 21 0
26 24 22 0
26 24 -22 0
26 -24 22 0
-26 24 22 0
28 30 25 0
28 30 -25 0
28 -30 25 0
-28 30 25 0
26 24 23 0
26 24 -23 0
26 -24 23 0
-26 24 23 0
22 25 27 0
22 25 -27 0
22 -25 27 0
-22 25 27 0
28 21 27 0
28 21 -27 0
28 -21 27 0
-28 21 27 0
26 29 28 0
26 29 -28 0
26 -29 28 0
-26 29 28 0
23 29 28 0
23 29 -28 0
23 -29 28 0
-23 29 28 0
30 26 21 0
30 26 -21 0
30 -26 21 0
-30 26 21 0
27 25 26 0
27 25 -26 0
27 -25 26 0
-27 25 26 0
21 30 25 0
21 30 -25 0
21 -30 25 0
-21 30 25 0
24 29 26 0
24 29 -26 0
24 -29 26 0
-24 29 26 0
24 28 27 0
24 28 -27 0
24 -28 27 0
-24 28 27 0
24 22 27 0
24 22 -27 0
24 -22 27 0
-24 22 27 0
27 26 28 0
27 26 -28 0
27 -26 28 0
-27 26 28 0
28 23 25 0
28 23 -25 0
28 -23 25 0
-28 23 25 0
24 25 28 0
24 25 -28 0
24 -25 28 0
-24 25 28 0
26 28 24 0
26 28 -24 0
26 -28 24 0
-26 28 24 0
28 27 30 0
28 27 -30 0
28 -27 30 0
-28 27 30 0
23 30 29 0
23 30 -29 0
23 -30 29 0
-23 30 29 0
